c Random generated cnf formula, satisfiable: true
p cnf 10 50
3 -1 8 0
7 -2 -6 0
-4 -3 2 0
9 6 5 0
3 1 5 0
1 -2 6 0
-9 -10 -8 0
-2 -5 -8 0
6 -1 4 0
6 -1 2 0
5 -8 3 0
-3 1 9 0
-5 1 2 0
2 -7 10 0
-7 -3 2 0
-10 1 5 0
-3 -1 -4 0
5 1 -4 0
-9 8 -7 0
4 8 -5 0
-5 -6 10 0
2 -10 -1 0
6 8 9 0
6 2 10 0
8 1 9 0
-2 8 -9 0
2 3 5 0
4 -8 -5 0
-9 -5 -1 0
2 -4 8 0
-1 -5 10 0
-6 2 -8 0
1 2 -3 0
6 8 -9 0
2 -1 -9 0
8 3 -10 0
-4 9 3 0
9 -2 -10 0
7 -8 -9 0
6 -3 1 0
-8 10 9 0
-6 2 4 0
-9 -6 -1 0
-1 2 7 0
-4 -7 -8 0
8 -5 -10 0
1 -5 -3 0
10 -9 3 0
-1 -7 3 0
-1 9 8 0
